NAME          DCAP_3_4_2_200_SS134
ROWS
 N  OBJ
 L  CON1
 L  CON2
 L  CON3
 L  CON4
 L  CON5
 L  CON6
 L  CON7
 L  CON8
 L  CON9
 L  CON10
 L  CON11
 L  CON12
 E  CON13
 E  CON14
 E  CON15
 E  CON16
 E  CON17
 E  CON18
 E  CON19
 E  CON20
COLUMNS
    x[1,1]    OBJ       6.180167      CON1      1.000000    
    x[1,1]    CON7      -1.000000     CON8      -1.000000   
    x[1,2]    OBJ       5.039546      CON2      1.000000    
    x[1,2]    CON8      -1.000000   
    x[2,1]    OBJ       6.732585      CON3      1.000000    
    x[2,1]    CON9      -1.000000     CON10     -1.000000   
    x[2,2]    OBJ       7.443064      CON4      1.000000    
    x[2,2]    CON10     -1.000000   
    x[3,1]    OBJ       6.563535      CON5      1.000000    
    x[3,1]    CON11     -1.000000     CON12     -1.000000   
    x[3,2]    OBJ       6.054841      CON6      1.000000    
    x[3,2]    CON12     -1.000000   
    MARKER    'MARKER'                'INTORG'
    u[1,1]    OBJ       48.076654     CON1      -1.000000   
    u[1,2]    OBJ       49.466655     CON2      -1.000000   
    u[2,1]    OBJ       49.996186     CON3      -1.000000   
    u[2,2]    OBJ       32.230043     CON4      -1.000000   
    u[3,1]    OBJ       20.066487     CON5      -1.000000   
    u[3,2]    OBJ       27.484319     CON6      -1.000000   
    y[1,1,1]  OBJ       6.923398      CON7      1.359803    
    y[1,1,1]  CON13     1.000000    
    y[1,1,2]  OBJ       8.366323      CON8      0.982233    
    y[1,1,2]  CON14     1.000000    
    y[1,2,1]  OBJ       7.819140      CON7      0.770588    
    y[1,2,1]  CON15     1.000000    
    y[1,2,2]  OBJ       8.935949      CON8      0.586506    
    y[1,2,2]  CON16     1.000000    
    y[1,3,1]  OBJ       8.599580      CON7      0.808323    
    y[1,3,1]  CON17     1.000000    
    y[1,3,2]  OBJ       7.557476      CON8      1.480893    
    y[1,3,2]  CON18     1.000000    
    y[1,4,1]  OBJ       7.807879      CON7      1.310004    
    y[1,4,1]  CON19     1.000000    
    y[1,4,2]  OBJ       7.251125      CON8      1.223135    
    y[1,4,2]  CON20     1.000000    
    y[2,1,1]  OBJ       7.719345      CON9      1.359803    
    y[2,1,1]  CON13     1.000000    
    y[2,1,2]  OBJ       5.783081      CON10     0.982233    
    y[2,1,2]  CON14     1.000000    
    y[2,2,1]  OBJ       7.255315      CON9      0.770588    
    y[2,2,1]  CON15     1.000000    
    y[2,2,2]  OBJ       7.952191      CON10     0.586506    
    y[2,2,2]  CON16     1.000000    
    y[2,3,1]  OBJ       8.103584      CON9      0.808323    
    y[2,3,1]  CON17     1.000000    
    y[2,3,2]  OBJ       9.290653      CON10     1.480893    
    y[2,3,2]  CON18     1.000000    
    y[2,4,1]  OBJ       6.086383      CON9      1.310004    
    y[2,4,1]  CON19     1.000000    
    y[2,4,2]  OBJ       9.673859      CON10     1.223135    
    y[2,4,2]  CON20     1.000000    
    y[3,1,1]  OBJ       9.749280      CON11     1.359803    
    y[3,1,1]  CON13     1.000000    
    y[3,1,2]  OBJ       9.165286      CON12     0.982233    
    y[3,1,2]  CON14     1.000000    
    y[3,2,1]  OBJ       5.245471      CON11     0.770588    
    y[3,2,1]  CON15     1.000000    
    y[3,2,2]  OBJ       8.099250      CON12     0.586506    
    y[3,2,2]  CON16     1.000000    
    y[3,3,1]  OBJ       9.927813      CON11     0.808323    
    y[3,3,1]  CON17     1.000000    
    y[3,3,2]  OBJ       6.474569      CON12     1.480893    
    y[3,3,2]  CON18     1.000000    
    y[3,4,1]  OBJ       6.971574      CON11     1.310004    
    y[3,4,1]  CON19     1.000000    
    y[3,4,2]  OBJ       5.287461      CON12     1.223135    
    y[3,4,2]  CON20     1.000000    
    z[1,1]    OBJ       504.127360    CON13     1.000000    
    z[1,2]    OBJ       913.300968    CON14     1.000000    
    z[2,1]    OBJ       536.761416    CON15     1.000000    
    z[2,2]    OBJ       948.623916    CON16     1.000000    
    z[3,1]    OBJ       855.765133    CON17     1.000000    
    z[3,2]    OBJ       593.427416    CON18     1.000000    
    z[4,1]    OBJ       848.728553    CON19     1.000000    
    z[4,2]    OBJ       859.107434    CON20     1.000000    
    MARKER    'MARKER'                 'INTEND'
RHS
    RHS       CON1      -0.000000     CON2      -0.000000   
    RHS       CON3      -0.000000     CON4      -0.000000   
    RHS       CON5      -0.000000     CON6      -0.000000   
    RHS       CON7      -0.000000     CON8      -0.000000   
    RHS       CON9      -0.000000     CON10     -0.000000   
    RHS       CON11     -0.000000     CON12     -0.000000   
    RHS       CON13     1.000000      CON14     1.000000    
    RHS       CON15     1.000000      CON16     1.000000    
    RHS       CON17     1.000000      CON18     1.000000    
    RHS       CON19     1.000000      CON20     1.000000    
BOUNDS
 BV BOUND     u[1,1]  
 BV BOUND     u[1,2]  
 BV BOUND     u[2,1]  
 BV BOUND     u[2,2]  
 BV BOUND     u[3,1]  
 BV BOUND     u[3,2]  
 BV BOUND     y[1,1,1]
 BV BOUND     y[1,1,2]
 BV BOUND     y[1,2,1]
 BV BOUND     y[1,2,2]
 BV BOUND     y[1,3,1]
 BV BOUND     y[1,3,2]
 BV BOUND     y[1,4,1]
 BV BOUND     y[1,4,2]
 BV BOUND     y[2,1,1]
 BV BOUND     y[2,1,2]
 BV BOUND     y[2,2,1]
 BV BOUND     y[2,2,2]
 BV BOUND     y[2,3,1]
 BV BOUND     y[2,3,2]
 BV BOUND     y[2,4,1]
 BV BOUND     y[2,4,2]
 BV BOUND     y[3,1,1]
 BV BOUND     y[3,1,2]
 BV BOUND     y[3,2,1]
 BV BOUND     y[3,2,2]
 BV BOUND     y[3,3,1]
 BV BOUND     y[3,3,2]
 BV BOUND     y[3,4,1]
 BV BOUND     y[3,4,2]
 BV BOUND     z[1,1]  
 BV BOUND     z[1,2]  
 BV BOUND     z[2,1]  
 BV BOUND     z[2,2]  
 BV BOUND     z[3,1]  
 BV BOUND     z[3,2]  
 BV BOUND     z[4,1]  
 BV BOUND     z[4,2]  
ENDATA
